<number of tasks>
50

<cycle time>
1000

<order strength>
0.198


<task times>
1 387
2 303
3 404
4 417
5 407
6 381
7 416
8 553
9 448
10 510
11 363
12 577
13 485
14 415
15 600
16 496
17 489
18 330
19 555
20 566
21 655
22 490
23 497
24 266
25 421
26 539
27 586
28 689
29 574
30 593
31 695
32 431
33 274
34 569
35 276
36 403
37 406
38 503
39 643
40 587
41 379
42 535
43 633
44 520
45 474
46 605
47 506
48 527
49 247
50 536

<precedence relations>
1,8
2,10
2,17
3,11
4,9
4,10
6,17
7,12
7,16
8,12
9,14
10,15
10,16
11,13
11,17
12,18
13,19
13,23
13,38
14,20
15,21
15,22
15,25
17,24
17,25
17,46
18,26
19,30
20,31
21,27
21,28
22,29
22,32
26,36
27,33
28,34
29,35
30,37
31,36
32,38
32,39
33,40
34,41
35,42
36,43
36,47
38,47
39,44
39,45
39,46
40,48
41,49
42,50

<end>
